24
425855 911193
348636 699561
526169 1049934
332447 675119
441002 942922
924697 1911983
383512 766504
696754 1428013
345706 665388
295567 601640
606800 1126415
502532 1004011
67352 135369
991656 2158735
779035 1516949
244102 505363
623815 1160279
460346 1003942
44551 81812
774214 1654345
215619 455207
914117 1774312
568645 1245431
227812 422075
5870470